\Problem name: compact

Minimize
OBJROW: C
Subject To
ord(0,1):  - x(0,1) + x(0,3) >= 6
ord(0,2):  x(0,0) - x(0,3) >= 3
ord(0,3):  - x(0,0) + x(0,2) >= 10
ord(1,1):  - x(1,1) + x(1,2) >= 7
ord(1,2):  x(1,0) - x(1,2) >= 6
ord(1,3):  - x(1,0) + x(1,3) >= 7
ord(2,1):  x(2,1) - x(2,2) >= 5
ord(2,2):  x(2,0) - x(2,1) >= 8
ord(2,3):  - x(2,0) + x(2,3) >= 3
ord(3,1):  x(3,1) - x(3,3) >= 3
ord(3,2):  - x(3,1) + x(3,2) >= 3
ord(3,3):  x(3,0) - x(3,2) >= 8
ord(4,1):  x(4,2) - x(4,3) >= 7
ord(4,2):  x(4,1) - x(4,2) >= 5
ord(4,3):  x(4,0) - x(4,1) >= 8
triangle2(0,1,0):  y(0,1,0) + y(1,0,0) = 1
triangle2(0,1,1):  y(0,1,1) + y(1,0,1) = 1
triangle2(0,1,2):  y(0,1,2) + y(1,0,2) = 1
triangle2(0,1,3):  y(0,1,3) + y(1,0,3) = 1
triangle2(0,2,0):  y(0,2,0) + y(2,0,0) = 1
triangle2(0,2,1):  y(0,2,1) + y(2,0,1) = 1
triangle2(0,2,2):  y(0,2,2) + y(2,0,2) = 1
triangle2(0,2,3):  y(0,2,3) + y(2,0,3) = 1
triangle2(0,3,0):  y(0,3,0) + y(3,0,0) = 1
triangle2(0,3,1):  y(0,3,1) + y(3,0,1) = 1
triangle2(0,3,2):  y(0,3,2) + y(3,0,2) = 1
triangle2(0,3,3):  y(0,3,3) + y(3,0,3) = 1
triangle2(0,4,0):  y(0,4,0) + y(4,0,0) = 1
triangle2(0,4,1):  y(0,4,1) + y(4,0,1) = 1
triangle2(0,4,2):  y(0,4,2) + y(4,0,2) = 1
triangle2(0,4,3):  y(0,4,3) + y(4,0,3) = 1
triangle2(1,2,0):  y(1,2,0) + y(2,1,0) = 1
triangle2(1,2,1):  y(1,2,1) + y(2,1,1) = 1
triangle2(1,2,2):  y(1,2,2) + y(2,1,2) = 1
triangle2(1,2,3):  y(1,2,3) + y(2,1,3) = 1
triangle2(1,3,0):  y(1,3,0) + y(3,1,0) = 1
triangle2(1,3,1):  y(1,3,1) + y(3,1,1) = 1
triangle2(1,3,2):  y(1,3,2) + y(3,1,2) = 1
triangle2(1,3,3):  y(1,3,3) + y(3,1,3) = 1
triangle2(1,4,0):  y(1,4,0) + y(4,1,0) = 1
triangle2(1,4,1):  y(1,4,1) + y(4,1,1) = 1
triangle2(1,4,2):  y(1,4,2) + y(4,1,2) = 1
triangle2(1,4,3):  y(1,4,3) + y(4,1,3) = 1
triangle2(2,3,0):  y(2,3,0) + y(3,2,0) = 1
triangle2(2,3,1):  y(2,3,1) + y(3,2,1) = 1
triangle2(2,3,2):  y(2,3,2) + y(3,2,2) = 1
triangle2(2,3,3):  y(2,3,3) + y(3,2,3) = 1
triangle2(2,4,0):  y(2,4,0) + y(4,2,0) = 1
triangle2(2,4,1):  y(2,4,1) + y(4,2,1) = 1
triangle2(2,4,2):  y(2,4,2) + y(4,2,2) = 1
triangle2(2,4,3):  y(2,4,3) + y(4,2,3) = 1
triangle2(3,4,0):  y(3,4,0) + y(4,3,0) = 1
triangle2(3,4,1):  y(3,4,1) + y(4,3,1) = 1
triangle2(3,4,2):  y(3,4,2) + y(4,3,2) = 1
triangle2(3,4,3):  y(3,4,3) + y(4,3,3) = 1
MCLinV(0,1,0):  x(0,0) - v(0,1,0) - x(1,0) = 7
MCLinV(1,0,0):  - x(0,0) - v(1,0,0) + x(1,0) = 10
MCLin1(0,1,0):  u(0,1,0) >= -0
MCLin2(0,1,0):  -100 y(1,0,0) - u(0,1,0) <= -0
MCLin3(0,1,0):  77 y(1,0,0) + v(0,1,0) - u(0,1,0) <= 77
MCLin4(0,1,0):  77 y(1,0,0) - u(0,1,0) >= -0
MCLin5(0,1,0):  -100 y(1,0,0) + v(0,1,0) - u(0,1,0) >= -100
MCLin6(1,0,0):  u(1,0,0) >= -0
MCLin7(1,0,0):  -94 y(0,1,0) - u(1,0,0) <= -0
MCLin8(1,0,0):  83 y(0,1,0) + v(1,0,0) - u(1,0,0) <= 83
MCLin9(1,0,0):  83 y(0,1,0) - u(1,0,0) >= -0
MCLin10(1,0,0):  -94 y(0,1,0) + v(1,0,0) - u(1,0,0) >= -94
MCLinV(0,1,1):  x(0,1) - v(0,1,1) - x(1,1) = 7
MCLinV(1,0,1):  - x(0,1) - v(1,0,1) + x(1,1) = 6
MCLin1(0,1,1):  u(0,1,1) >= -0
MCLin2(0,1,1):  -96 y(1,0,1) - u(0,1,1) <= -0
MCLin3(0,1,1):  81 y(1,0,1) + v(0,1,1) - u(0,1,1) <= 81
MCLin4(0,1,1):  81 y(1,0,1) - u(0,1,1) >= -0
MCLin5(0,1,1):  -96 y(1,0,1) + v(0,1,1) - u(0,1,1) >= -96
MCLin6(1,0,1):  u(1,0,1) >= -0
MCLin7(1,0,1):  -94 y(0,1,1) - u(1,0,1) <= -0
MCLin8(1,0,1):  83 y(0,1,1) + v(1,0,1) - u(1,0,1) <= 83
MCLin9(1,0,1):  83 y(0,1,1) - u(1,0,1) >= -0
MCLin10(1,0,1):  -94 y(0,1,1) + v(1,0,1) - u(1,0,1) >= -94
MCLinV(0,1,2):  x(0,2) - v(0,1,2) - x(1,2) = 6
MCLinV(1,0,2):  - x(0,2) - v(1,0,2) + x(1,2) = 5
MCLin1(0,1,2):  u(0,1,2) >= -0
MCLin2(0,1,2):  -83 y(1,0,2) - u(0,1,2) <= -0
MCLin3(0,1,2):  94 y(1,0,2) + v(0,1,2) - u(0,1,2) <= 94
MCLin4(0,1,2):  94 y(1,0,2) - u(0,1,2) >= -0
MCLin5(0,1,2):  -83 y(1,0,2) + v(0,1,2) - u(0,1,2) >= -83
MCLin6(1,0,2):  u(1,0,2) >= -0
MCLin7(1,0,2):  -105 y(0,1,2) - u(1,0,2) <= -0
MCLin8(1,0,2):  72 y(0,1,2) + v(1,0,2) - u(1,0,2) <= 72
MCLin9(1,0,2):  72 y(0,1,2) - u(1,0,2) >= -0
MCLin10(1,0,2):  -105 y(0,1,2) + v(1,0,2) - u(1,0,2) >= -105
MCLinV(0,1,3):  x(0,3) - v(0,1,3) - x(1,3) = 3
MCLinV(1,0,3):  - x(0,3) - v(1,0,3) + x(1,3) = 3
MCLin1(0,1,3):  u(0,1,3) >= -0
MCLin2(0,1,3):  -106 y(1,0,3) - u(0,1,3) <= -0
MCLin3(0,1,3):  71 y(1,0,3) + v(0,1,3) - u(0,1,3) <= 71
MCLin4(0,1,3):  71 y(1,0,3) - u(0,1,3) >= -0
MCLin5(0,1,3):  -106 y(1,0,3) + v(0,1,3) - u(0,1,3) >= -106
MCLin6(1,0,3):  u(1,0,3) >= -0
MCLin7(1,0,3):  -77 y(0,1,3) - u(1,0,3) <= -0
MCLin8(1,0,3):  100 y(0,1,3) + v(1,0,3) - u(1,0,3) <= 100
MCLin9(1,0,3):  100 y(0,1,3) - u(1,0,3) >= -0
MCLin10(1,0,3):  -77 y(0,1,3) + v(1,0,3) - u(1,0,3) >= -77
MCLinV(0,2,0):  x(0,0) - v(0,2,0) - x(2,0) = 3
MCLinV(2,0,0):  - x(0,0) - v(2,0,0) + x(2,0) = 10
MCLin1(0,2,0):  u(0,2,0) >= -0
MCLin2(0,2,0):  -102 y(2,0,0) - u(0,2,0) <= -0
MCLin3(0,2,0):  81 y(2,0,0) + v(0,2,0) - u(0,2,0) <= 81
MCLin4(0,2,0):  81 y(2,0,0) - u(0,2,0) >= -0
MCLin5(0,2,0):  -102 y(2,0,0) + v(0,2,0) - u(0,2,0) >= -102
MCLin6(2,0,0):  u(2,0,0) >= -0
MCLin7(2,0,0):  -94 y(0,2,0) - u(2,0,0) <= -0
MCLin8(2,0,0):  89 y(0,2,0) + v(2,0,0) - u(2,0,0) <= 89
MCLin9(2,0,0):  89 y(0,2,0) - u(2,0,0) >= -0
MCLin10(2,0,0):  -94 y(0,2,0) + v(2,0,0) - u(2,0,0) >= -94
MCLinV(0,2,1):  x(0,1) - v(0,2,1) - x(2,1) = 8
MCLinV(2,0,1):  - x(0,1) - v(2,0,1) + x(2,1) = 6
MCLin1(0,2,1):  u(0,2,1) >= -0
MCLin2(0,2,1):  -108 y(2,0,1) - u(0,2,1) <= -0
MCLin3(0,2,1):  75 y(2,0,1) + v(0,2,1) - u(0,2,1) <= 75
MCLin4(0,2,1):  75 y(2,0,1) - u(0,2,1) >= -0
MCLin5(0,2,1):  -108 y(2,0,1) + v(0,2,1) - u(0,2,1) >= -108
MCLin6(2,0,1):  u(2,0,1) >= -0
MCLin7(2,0,1):  -89 y(0,2,1) - u(2,0,1) <= -0
MCLin8(2,0,1):  94 y(0,2,1) + v(2,0,1) - u(2,0,1) <= 94
MCLin9(2,0,1):  94 y(0,2,1) - u(2,0,1) >= -0
MCLin10(2,0,1):  -89 y(0,2,1) + v(2,0,1) - u(2,0,1) >= -89
MCLinV(0,2,2):  x(0,2) - v(0,2,2) - x(2,2) = 5
MCLinV(2,0,2):  - x(0,2) - v(2,0,2) + x(2,2) = 5
MCLin1(0,2,2):  u(0,2,2) >= -0
MCLin2(0,2,2):  -81 y(2,0,2) - u(0,2,2) <= -0
MCLin3(0,2,2):  102 y(2,0,2) + v(0,2,2) - u(0,2,2) <= 102
MCLin4(0,2,2):  102 y(2,0,2) - u(0,2,2) >= -0
MCLin5(0,2,2):  -81 y(2,0,2) + v(0,2,2) - u(0,2,2) >= -81
MCLin6(2,0,2):  u(2,0,2) >= -0
MCLin7(2,0,2):  -112 y(0,2,2) - u(2,0,2) <= -0
MCLin8(2,0,2):  71 y(0,2,2) + v(2,0,2) - u(2,0,2) <= 71
MCLin9(2,0,2):  71 y(0,2,2) - u(2,0,2) >= -0
MCLin10(2,0,2):  -112 y(0,2,2) + v(2,0,2) - u(2,0,2) >= -112
MCLinV(0,2,3):  x(0,3) - v(0,2,3) - x(2,3) = 1
MCLinV(2,0,3):  - x(0,3) - v(2,0,3) + x(2,3) = 3
MCLin1(0,2,3):  u(0,2,3) >= -0
MCLin2(0,2,3):  -106 y(2,0,3) - u(0,2,3) <= -0
MCLin3(0,2,3):  77 y(2,0,3) + v(0,2,3) - u(0,2,3) <= 77
MCLin4(0,2,3):  77 y(2,0,3) - u(0,2,3) >= -0
MCLin5(0,2,3):  -106 y(2,0,3) + v(0,2,3) - u(0,2,3) >= -106
MCLin6(2,0,3):  u(2,0,3) >= -0
MCLin7(2,0,3):  -81 y(0,2,3) - u(2,0,3) <= -0
MCLin8(2,0,3):  102 y(0,2,3) + v(2,0,3) - u(2,0,3) <= 102
MCLin9(2,0,3):  102 y(0,2,3) - u(2,0,3) >= -0
MCLin10(2,0,3):  -81 y(0,2,3) + v(2,0,3) - u(2,0,3) >= -81
MCLinV(0,3,0):  x(0,0) - v(0,3,0) - x(3,0) = 7
MCLinV(3,0,0):  - x(0,0) - v(3,0,0) + x(3,0) = 10
MCLin1(0,3,0):  u(0,3,0) >= -0
MCLin2(0,3,0):  -103 y(3,0,0) - u(0,3,0) <= -0
MCLin3(0,3,0):  76 y(3,0,0) + v(0,3,0) - u(0,3,0) <= 76
MCLin4(0,3,0):  76 y(3,0,0) - u(0,3,0) >= -0
MCLin5(0,3,0):  -103 y(3,0,0) + v(0,3,0) - u(0,3,0) >= -103
MCLin6(3,0,0):  u(3,0,0) >= -0
MCLin7(3,0,0):  -93 y(0,3,0) - u(3,0,0) <= -0
MCLin8(3,0,0):  86 y(0,3,0) + v(3,0,0) - u(3,0,0) <= 86
MCLin9(3,0,0):  86 y(0,3,0) - u(3,0,0) >= -0
MCLin10(3,0,0):  -93 y(0,3,0) + v(3,0,0) - u(3,0,0) >= -93
MCLinV(0,3,1):  x(0,1) - v(0,3,1) - x(3,1) = 3
MCLinV(3,0,1):  - x(0,1) - v(3,0,1) + x(3,1) = 6
MCLin1(0,3,1):  u(0,3,1) >= -0
MCLin2(0,3,1):  -97 y(3,0,1) - u(0,3,1) <= -0
MCLin3(0,3,1):  82 y(3,0,1) + v(0,3,1) - u(0,3,1) <= 82
MCLin4(0,3,1):  82 y(3,0,1) - u(0,3,1) >= -0
MCLin5(0,3,1):  -97 y(3,0,1) + v(0,3,1) - u(0,3,1) >= -97
MCLin6(3,0,1):  u(3,0,1) >= -0
MCLin7(3,0,1):  -91 y(0,3,1) - u(3,0,1) <= -0
MCLin8(3,0,1):  88 y(0,3,1) + v(3,0,1) - u(3,0,1) <= 88
MCLin9(3,0,1):  88 y(0,3,1) - u(3,0,1) >= -0
MCLin10(3,0,1):  -91 y(0,3,1) + v(3,0,1) - u(3,0,1) >= -91
MCLinV(0,3,2):  x(0,2) - v(0,3,2) - x(3,2) = 8
MCLinV(3,0,2):  - x(0,2) - v(3,0,2) + x(3,2) = 5
MCLin1(0,3,2):  u(0,3,2) >= -0
MCLin2(0,3,2):  -86 y(3,0,2) - u(0,3,2) <= -0
MCLin3(0,3,2):  93 y(3,0,2) + v(0,3,2) - u(0,3,2) <= 93
MCLin4(0,3,2):  93 y(3,0,2) - u(0,3,2) >= -0
MCLin5(0,3,2):  -86 y(3,0,2) + v(0,3,2) - u(0,3,2) >= -86
MCLin6(3,0,2):  u(3,0,2) >= -0
MCLin7(3,0,2):  -106 y(0,3,2) - u(3,0,2) <= -0
MCLin8(3,0,2):  73 y(0,3,2) + v(3,0,2) - u(3,0,2) <= 73
MCLin9(3,0,2):  73 y(0,3,2) - u(3,0,2) >= -0
MCLin10(3,0,2):  -106 y(0,3,2) + v(3,0,2) - u(3,0,2) >= -106
MCLinV(0,3,3):  x(0,3) - v(0,3,3) - x(3,3) = 3
MCLinV(3,0,3):  - x(0,3) - v(3,0,3) + x(3,3) = 3
MCLin1(0,3,3):  u(0,3,3) >= -0
MCLin2(0,3,3):  -88 y(3,0,3) - u(0,3,3) <= -0
MCLin3(0,3,3):  91 y(3,0,3) + v(0,3,3) - u(0,3,3) <= 91
MCLin4(0,3,3):  91 y(3,0,3) - u(0,3,3) >= -0
MCLin5(0,3,3):  -88 y(3,0,3) + v(0,3,3) - u(0,3,3) >= -88
MCLin6(3,0,3):  u(3,0,3) >= -0
MCLin7(3,0,3):  -97 y(0,3,3) - u(3,0,3) <= -0
MCLin8(3,0,3):  82 y(0,3,3) + v(3,0,3) - u(3,0,3) <= 82
MCLin9(3,0,3):  82 y(0,3,3) - u(3,0,3) >= -0
MCLin10(3,0,3):  -97 y(0,3,3) + v(3,0,3) - u(3,0,3) >= -97
MCLinV(0,4,0):  x(0,0) - v(0,4,0) - x(4,0) = 7
MCLinV(4,0,0):  - x(0,0) - v(4,0,0) + x(4,0) = 10
MCLin1(0,4,0):  u(0,4,0) >= -0
MCLin2(0,4,0):  -103 y(4,0,0) - u(0,4,0) <= -0
MCLin3(0,4,0):  70 y(4,0,0) + v(0,4,0) - u(0,4,0) <= 70
MCLin4(0,4,0):  70 y(4,0,0) - u(0,4,0) >= -0
MCLin5(0,4,0):  -103 y(4,0,0) + v(0,4,0) - u(0,4,0) >= -103
MCLin6(4,0,0):  u(4,0,0) >= -0
MCLin7(4,0,0):  -87 y(0,4,0) - u(4,0,0) <= -0
MCLin8(4,0,0):  86 y(0,4,0) + v(4,0,0) - u(4,0,0) <= 86
MCLin9(4,0,0):  86 y(0,4,0) - u(4,0,0) >= -0
MCLin10(4,0,0):  -87 y(0,4,0) + v(4,0,0) - u(4,0,0) >= -87
MCLinV(0,4,1):  x(0,1) - v(0,4,1) - x(4,1) = 8
MCLinV(4,0,1):  - x(0,1) - v(4,0,1) + x(4,1) = 6
MCLin1(0,4,1):  u(0,4,1) >= -0
MCLin2(0,4,1):  -105 y(4,0,1) - u(0,4,1) <= -0
MCLin3(0,4,1):  68 y(4,0,1) + v(0,4,1) - u(0,4,1) <= 68
MCLin4(0,4,1):  68 y(4,0,1) - u(0,4,1) >= -0
MCLin5(0,4,1):  -105 y(4,0,1) + v(0,4,1) - u(0,4,1) >= -105
MCLin6(4,0,1):  u(4,0,1) >= -0
MCLin7(4,0,1):  -82 y(0,4,1) - u(4,0,1) <= -0
MCLin8(4,0,1):  91 y(0,4,1) + v(4,0,1) - u(4,0,1) <= 91
MCLin9(4,0,1):  91 y(0,4,1) - u(4,0,1) >= -0
MCLin10(4,0,1):  -82 y(0,4,1) + v(4,0,1) - u(4,0,1) >= -82
MCLinV(0,4,2):  x(0,2) - v(0,4,2) - x(4,2) = 5
MCLinV(4,0,2):  - x(0,2) - v(4,0,2) + x(4,2) = 5
MCLin1(0,4,2):  u(0,4,2) >= -0
MCLin2(0,4,2):  -78 y(4,0,2) - u(0,4,2) <= -0
MCLin3(0,4,2):  95 y(4,0,2) + v(0,4,2) - u(0,4,2) <= 95
MCLin4(0,4,2):  95 y(4,0,2) - u(0,4,2) >= -0
MCLin5(0,4,2):  -78 y(4,0,2) + v(0,4,2) - u(0,4,2) >= -78
MCLin6(4,0,2):  u(4,0,2) >= -0
MCLin7(4,0,2):  -105 y(0,4,2) - u(4,0,2) <= -0
MCLin8(4,0,2):  68 y(0,4,2) + v(4,0,2) - u(4,0,2) <= 68
MCLin9(4,0,2):  68 y(0,4,2) - u(4,0,2) >= -0
MCLin10(4,0,2):  -105 y(0,4,2) + v(4,0,2) - u(4,0,2) >= -105
MCLinV(0,4,3):  x(0,3) - v(0,4,3) - x(4,3) = 7
MCLinV(4,0,3):  - x(0,3) - v(4,0,3) + x(4,3) = 3
MCLin1(0,4,3):  u(0,4,3) >= -0
MCLin2(0,4,3):  -86 y(4,0,3) - u(0,4,3) <= -0
MCLin3(0,4,3):  87 y(4,0,3) + v(0,4,3) - u(0,4,3) <= 87
MCLin4(0,4,3):  87 y(4,0,3) - u(0,4,3) >= -0
MCLin5(0,4,3):  -86 y(4,0,3) + v(0,4,3) - u(0,4,3) >= -86
MCLin6(4,0,3):  u(4,0,3) >= -0
MCLin7(4,0,3):  -97 y(0,4,3) - u(4,0,3) <= -0
MCLin8(4,0,3):  76 y(0,4,3) + v(4,0,3) - u(4,0,3) <= 76
MCLin9(4,0,3):  76 y(0,4,3) - u(4,0,3) >= -0
MCLin10(4,0,3):  -97 y(0,4,3) + v(4,0,3) - u(4,0,3) >= -97
MCLinV(1,2,0):  x(1,0) - v(1,2,0) - x(2,0) = 3
MCLinV(2,1,0):  - x(1,0) - v(2,1,0) + x(2,0) = 7
MCLin1(1,2,0):  u(1,2,0) >= -0
MCLin2(1,2,0):  -98 y(2,1,0) - u(1,2,0) <= -0
MCLin3(1,2,0):  86 y(2,1,0) + v(1,2,0) - u(1,2,0) <= 86
MCLin4(1,2,0):  86 y(2,1,0) - u(1,2,0) >= -0
MCLin5(1,2,0):  -98 y(2,1,0) + v(1,2,0) - u(1,2,0) >= -98
MCLin6(2,1,0):  u(2,1,0) >= -0
MCLin7(2,1,0):  -96 y(1,2,0) - u(2,1,0) <= -0
MCLin8(2,1,0):  88 y(1,2,0) + v(2,1,0) - u(2,1,0) <= 88
MCLin9(2,1,0):  88 y(1,2,0) - u(2,1,0) >= -0
MCLin10(2,1,0):  -96 y(1,2,0) + v(2,1,0) - u(2,1,0) >= -96
MCLinV(1,2,1):  x(1,1) - v(1,2,1) - x(2,1) = 8
MCLinV(2,1,1):  - x(1,1) - v(2,1,1) + x(2,1) = 7
MCLin1(1,2,1):  u(1,2,1) >= -0
MCLin2(1,2,1):  -108 y(2,1,1) - u(1,2,1) <= -0
MCLin3(1,2,1):  76 y(2,1,1) + v(1,2,1) - u(1,2,1) <= 76
MCLin4(1,2,1):  76 y(2,1,1) - u(1,2,1) >= -0
MCLin5(1,2,1):  -108 y(2,1,1) + v(1,2,1) - u(1,2,1) >= -108
MCLin6(2,1,1):  u(2,1,1) >= -0
MCLin7(2,1,1):  -91 y(1,2,1) - u(2,1,1) <= -0
MCLin8(2,1,1):  93 y(1,2,1) + v(2,1,1) - u(2,1,1) <= 93
MCLin9(2,1,1):  93 y(1,2,1) - u(2,1,1) >= -0
MCLin10(2,1,1):  -91 y(1,2,1) + v(2,1,1) - u(2,1,1) >= -91
MCLinV(1,2,2):  x(1,2) - v(1,2,2) - x(2,2) = 5
MCLinV(2,1,2):  - x(1,2) - v(2,1,2) + x(2,2) = 6
MCLin1(1,2,2):  u(1,2,2) >= -0
MCLin2(1,2,2):  -93 y(2,1,2) - u(1,2,2) <= -0
MCLin3(1,2,2):  91 y(2,1,2) + v(1,2,2) - u(1,2,2) <= 91
MCLin4(1,2,2):  91 y(2,1,2) - u(1,2,2) >= -0
MCLin5(1,2,2):  -93 y(2,1,2) + v(1,2,2) - u(1,2,2) >= -93
MCLin6(2,1,2):  u(2,1,2) >= -0
MCLin7(2,1,2):  -102 y(1,2,2) - u(2,1,2) <= -0
MCLin8(2,1,2):  82 y(1,2,2) + v(2,1,2) - u(2,1,2) <= 82
MCLin9(2,1,2):  82 y(1,2,2) - u(2,1,2) >= -0
MCLin10(2,1,2):  -102 y(1,2,2) + v(2,1,2) - u(2,1,2) >= -102
MCLinV(1,2,3):  x(1,3) - v(1,2,3) - x(2,3) = 1
MCLinV(2,1,3):  - x(1,3) - v(2,1,3) + x(2,3) = 3
MCLin1(1,2,3):  u(1,2,3) >= -0
MCLin2(1,2,3):  -92 y(2,1,3) - u(1,2,3) <= -0
MCLin3(1,2,3):  92 y(2,1,3) + v(1,2,3) - u(1,2,3) <= 92
MCLin4(1,2,3):  92 y(2,1,3) - u(1,2,3) >= -0
MCLin5(1,2,3):  -92 y(2,1,3) + v(1,2,3) - u(1,2,3) >= -92
MCLin6(2,1,3):  u(2,1,3) >= -0
MCLin7(2,1,3):  -96 y(1,2,3) - u(2,1,3) <= -0
MCLin8(2,1,3):  88 y(1,2,3) + v(2,1,3) - u(2,1,3) <= 88
MCLin9(2,1,3):  88 y(1,2,3) - u(2,1,3) >= -0
MCLin10(2,1,3):  -96 y(1,2,3) + v(2,1,3) - u(2,1,3) >= -96
MCLinV(1,3,0):  x(1,0) - v(1,3,0) - x(3,0) = 7
MCLinV(3,1,0):  - x(1,0) - v(3,1,0) + x(3,0) = 7
MCLin1(1,3,0):  u(1,3,0) >= -0
MCLin2(1,3,0):  -99 y(3,1,0) - u(1,3,0) <= -0
MCLin3(1,3,0):  81 y(3,1,0) + v(1,3,0) - u(1,3,0) <= 81
MCLin4(1,3,0):  81 y(3,1,0) - u(1,3,0) >= -0
MCLin5(1,3,0):  -99 y(3,1,0) + v(1,3,0) - u(1,3,0) >= -99
MCLin6(3,1,0):  u(3,1,0) >= -0
MCLin7(3,1,0):  -95 y(1,3,0) - u(3,1,0) <= -0
MCLin8(3,1,0):  85 y(1,3,0) + v(3,1,0) - u(3,1,0) <= 85
MCLin9(3,1,0):  85 y(1,3,0) - u(3,1,0) >= -0
MCLin10(3,1,0):  -95 y(1,3,0) + v(3,1,0) - u(3,1,0) >= -95
MCLinV(1,3,1):  x(1,1) - v(1,3,1) - x(3,1) = 3
MCLinV(3,1,1):  - x(1,1) - v(3,1,1) + x(3,1) = 7
MCLin1(1,3,1):  u(1,3,1) >= -0
MCLin2(1,3,1):  -97 y(3,1,1) - u(1,3,1) <= -0
MCLin3(1,3,1):  83 y(3,1,1) + v(1,3,1) - u(1,3,1) <= 83
MCLin4(1,3,1):  83 y(3,1,1) - u(1,3,1) >= -0
MCLin5(1,3,1):  -97 y(3,1,1) + v(1,3,1) - u(1,3,1) >= -97
MCLin6(3,1,1):  u(3,1,1) >= -0
MCLin7(3,1,1):  -93 y(1,3,1) - u(3,1,1) <= -0
MCLin8(3,1,1):  87 y(1,3,1) + v(3,1,1) - u(3,1,1) <= 87
MCLin9(3,1,1):  87 y(1,3,1) - u(3,1,1) >= -0
MCLin10(3,1,1):  -93 y(1,3,1) + v(3,1,1) - u(3,1,1) >= -93
MCLinV(1,3,2):  x(1,2) - v(1,3,2) - x(3,2) = 8
MCLinV(3,1,2):  - x(1,2) - v(3,1,2) + x(3,2) = 6
MCLin1(1,3,2):  u(1,3,2) >= -0
MCLin2(1,3,2):  -98 y(3,1,2) - u(1,3,2) <= -0
MCLin3(1,3,2):  82 y(3,1,2) + v(1,3,2) - u(1,3,2) <= 82
MCLin4(1,3,2):  82 y(3,1,2) - u(1,3,2) >= -0
MCLin5(1,3,2):  -98 y(3,1,2) + v(1,3,2) - u(1,3,2) >= -98
MCLin6(3,1,2):  u(3,1,2) >= -0
MCLin7(3,1,2):  -96 y(1,3,2) - u(3,1,2) <= -0
MCLin8(3,1,2):  84 y(1,3,2) + v(3,1,2) - u(3,1,2) <= 84
MCLin9(3,1,2):  84 y(1,3,2) - u(3,1,2) >= -0
MCLin10(3,1,2):  -96 y(1,3,2) + v(3,1,2) - u(3,1,2) >= -96
MCLinV(1,3,3):  x(1,3) - v(1,3,3) - x(3,3) = 3
MCLinV(3,1,3):  - x(1,3) - v(3,1,3) + x(3,3) = 3
MCLin1(1,3,3):  u(1,3,3) >= -0
MCLin2(1,3,3):  -74 y(3,1,3) - u(1,3,3) <= -0
MCLin3(1,3,3):  106 y(3,1,3) + v(1,3,3) - u(1,3,3) <= 106
MCLin4(1,3,3):  106 y(3,1,3) - u(1,3,3) >= -0
MCLin5(1,3,3):  -74 y(3,1,3) + v(1,3,3) - u(1,3,3) >= -74
MCLin6(3,1,3):  u(3,1,3) >= -0
MCLin7(3,1,3):  -112 y(1,3,3) - u(3,1,3) <= -0
MCLin8(3,1,3):  68 y(1,3,3) + v(3,1,3) - u(3,1,3) <= 68
MCLin9(3,1,3):  68 y(1,3,3) - u(3,1,3) >= -0
MCLin10(3,1,3):  -112 y(1,3,3) + v(3,1,3) - u(3,1,3) >= -112
MCLinV(1,4,0):  x(1,0) - v(1,4,0) - x(4,0) = 7
MCLinV(4,1,0):  - x(1,0) - v(4,1,0) + x(4,0) = 7
MCLin1(1,4,0):  u(1,4,0) >= -0
MCLin2(1,4,0):  -99 y(4,1,0) - u(1,4,0) <= -0
MCLin3(1,4,0):  75 y(4,1,0) + v(1,4,0) - u(1,4,0) <= 75
MCLin4(1,4,0):  75 y(4,1,0) - u(1,4,0) >= -0
MCLin5(1,4,0):  -99 y(4,1,0) + v(1,4,0) - u(1,4,0) >= -99
MCLin6(4,1,0):  u(4,1,0) >= -0
MCLin7(4,1,0):  -89 y(1,4,0) - u(4,1,0) <= -0
MCLin8(4,1,0):  85 y(1,4,0) + v(4,1,0) - u(4,1,0) <= 85
MCLin9(4,1,0):  85 y(1,4,0) - u(4,1,0) >= -0
MCLin10(4,1,0):  -89 y(1,4,0) + v(4,1,0) - u(4,1,0) >= -89
MCLinV(1,4,1):  x(1,1) - v(1,4,1) - x(4,1) = 8
MCLinV(4,1,1):  - x(1,1) - v(4,1,1) + x(4,1) = 7
MCLin1(1,4,1):  u(1,4,1) >= -0
MCLin2(1,4,1):  -105 y(4,1,1) - u(1,4,1) <= -0
MCLin3(1,4,1):  69 y(4,1,1) + v(1,4,1) - u(1,4,1) <= 69
MCLin4(1,4,1):  69 y(4,1,1) - u(1,4,1) >= -0
MCLin5(1,4,1):  -105 y(4,1,1) + v(1,4,1) - u(1,4,1) >= -105
MCLin6(4,1,1):  u(4,1,1) >= -0
MCLin7(4,1,1):  -84 y(1,4,1) - u(4,1,1) <= -0
MCLin8(4,1,1):  90 y(1,4,1) + v(4,1,1) - u(4,1,1) <= 90
MCLin9(4,1,1):  90 y(1,4,1) - u(4,1,1) >= -0
MCLin10(4,1,1):  -84 y(1,4,1) + v(4,1,1) - u(4,1,1) >= -84
MCLinV(1,4,2):  x(1,2) - v(1,4,2) - x(4,2) = 5
MCLinV(4,1,2):  - x(1,2) - v(4,1,2) + x(4,2) = 6
MCLin1(1,4,2):  u(1,4,2) >= -0
MCLin2(1,4,2):  -90 y(4,1,2) - u(1,4,2) <= -0
MCLin3(1,4,2):  84 y(4,1,2) + v(1,4,2) - u(1,4,2) <= 84
MCLin4(1,4,2):  84 y(4,1,2) - u(1,4,2) >= -0
MCLin5(1,4,2):  -90 y(4,1,2) + v(1,4,2) - u(1,4,2) >= -90
MCLin6(4,1,2):  u(4,1,2) >= -0
MCLin7(4,1,2):  -95 y(1,4,2) - u(4,1,2) <= -0
MCLin8(4,1,2):  79 y(1,4,2) + v(4,1,2) - u(4,1,2) <= 79
MCLin9(4,1,2):  79 y(1,4,2) - u(4,1,2) >= -0
MCLin10(4,1,2):  -95 y(1,4,2) + v(4,1,2) - u(4,1,2) >= -95
MCLinV(1,4,3):  x(1,3) - v(1,4,3) - x(4,3) = 7
MCLinV(4,1,3):  - x(1,3) - v(4,1,3) + x(4,3) = 3
MCLin1(1,4,3):  u(1,4,3) >= -0
MCLin2(1,4,3):  -72 y(4,1,3) - u(1,4,3) <= -0
MCLin3(1,4,3):  102 y(4,1,3) + v(1,4,3) - u(1,4,3) <= 102
MCLin4(1,4,3):  102 y(4,1,3) - u(1,4,3) >= -0
MCLin5(1,4,3):  -72 y(4,1,3) + v(1,4,3) - u(1,4,3) >= -72
MCLin6(4,1,3):  u(4,1,3) >= -0
MCLin7(4,1,3):  -112 y(1,4,3) - u(4,1,3) <= -0
MCLin8(4,1,3):  62 y(1,4,3) + v(4,1,3) - u(4,1,3) <= 62
MCLin9(4,1,3):  62 y(1,4,3) - u(4,1,3) >= -0
MCLin10(4,1,3):  -112 y(1,4,3) + v(4,1,3) - u(4,1,3) >= -112
MCLinV(2,3,0):  x(2,0) - v(2,3,0) - x(3,0) = 7
MCLinV(3,2,0):  - x(2,0) - v(3,2,0) + x(3,0) = 3
MCLin1(2,3,0):  u(2,3,0) >= -0
MCLin2(2,3,0):  -99 y(3,2,0) - u(2,3,0) <= -0
MCLin3(2,3,0):  87 y(3,2,0) + v(2,3,0) - u(2,3,0) <= 87
MCLin4(2,3,0):  87 y(3,2,0) - u(2,3,0) >= -0
MCLin5(2,3,0):  -99 y(3,2,0) + v(2,3,0) - u(2,3,0) >= -99
MCLin6(3,2,0):  u(3,2,0) >= -0
MCLin7(3,2,0):  -97 y(2,3,0) - u(3,2,0) <= -0
MCLin8(3,2,0):  89 y(2,3,0) + v(3,2,0) - u(3,2,0) <= 89
MCLin9(3,2,0):  89 y(2,3,0) - u(3,2,0) >= -0
MCLin10(3,2,0):  -97 y(2,3,0) + v(3,2,0) - u(3,2,0) >= -97
MCLinV(2,3,1):  x(2,1) - v(2,3,1) - x(3,1) = 3
MCLinV(3,2,1):  - x(2,1) - v(3,2,1) + x(3,1) = 8
MCLin1(2,3,1):  u(2,3,1) >= -0
MCLin2(2,3,1):  -92 y(3,2,1) - u(2,3,1) <= -0
MCLin3(2,3,1):  94 y(3,2,1) + v(2,3,1) - u(2,3,1) <= 94
MCLin4(2,3,1):  94 y(3,2,1) - u(2,3,1) >= -0
MCLin5(2,3,1):  -92 y(3,2,1) + v(2,3,1) - u(2,3,1) >= -92
MCLin6(3,2,1):  u(3,2,1) >= -0
MCLin7(3,2,1):  -105 y(2,3,1) - u(3,2,1) <= -0
MCLin8(3,2,1):  81 y(2,3,1) + v(3,2,1) - u(3,2,1) <= 81
MCLin9(3,2,1):  81 y(2,3,1) - u(3,2,1) >= -0
MCLin10(3,2,1):  -105 y(2,3,1) + v(3,2,1) - u(3,2,1) >= -105
MCLinV(2,3,2):  x(2,2) - v(2,3,2) - x(3,2) = 8
MCLinV(3,2,2):  - x(2,2) - v(3,2,2) + x(3,2) = 5
MCLin1(2,3,2):  u(2,3,2) >= -0
MCLin2(2,3,2):  -105 y(3,2,2) - u(2,3,2) <= -0
MCLin3(2,3,2):  81 y(3,2,2) + v(2,3,2) - u(2,3,2) <= 81
MCLin4(2,3,2):  81 y(3,2,2) - u(2,3,2) >= -0
MCLin5(2,3,2):  -105 y(3,2,2) + v(2,3,2) - u(2,3,2) >= -105
MCLin6(3,2,2):  u(3,2,2) >= -0
MCLin7(3,2,2):  -94 y(2,3,2) - u(3,2,2) <= -0
MCLin8(3,2,2):  92 y(2,3,2) + v(3,2,2) - u(3,2,2) <= 92
MCLin9(3,2,2):  92 y(2,3,2) - u(3,2,2) >= -0
MCLin10(3,2,2):  -94 y(2,3,2) + v(3,2,2) - u(3,2,2) >= -94
MCLinV(2,3,3):  x(2,3) - v(2,3,3) - x(3,3) = 3
MCLinV(3,2,3):  - x(2,3) - v(3,2,3) + x(3,3) = 1
MCLin1(2,3,3):  u(2,3,3) >= -0
MCLin2(2,3,3):  -78 y(3,2,3) - u(2,3,3) <= -0
MCLin3(2,3,3):  108 y(3,2,3) + v(2,3,3) - u(2,3,3) <= 108
MCLin4(2,3,3):  108 y(3,2,3) - u(2,3,3) >= -0
MCLin5(2,3,3):  -78 y(3,2,3) + v(2,3,3) - u(2,3,3) >= -78
MCLin6(3,2,3):  u(3,2,3) >= -0
MCLin7(3,2,3):  -112 y(2,3,3) - u(3,2,3) <= -0
MCLin8(3,2,3):  74 y(2,3,3) + v(3,2,3) - u(3,2,3) <= 74
MCLin9(3,2,3):  74 y(2,3,3) - u(3,2,3) >= -0
MCLin10(3,2,3):  -112 y(2,3,3) + v(3,2,3) - u(3,2,3) >= -112
MCLinV(2,4,0):  x(2,0) - v(2,4,0) - x(4,0) = 7
MCLinV(4,2,0):  - x(2,0) - v(4,2,0) + x(4,0) = 3
MCLin1(2,4,0):  u(2,4,0) >= -0
MCLin2(2,4,0):  -99 y(4,2,0) - u(2,4,0) <= -0
MCLin3(2,4,0):  81 y(4,2,0) + v(2,4,0) - u(2,4,0) <= 81
MCLin4(2,4,0):  81 y(4,2,0) - u(2,4,0) >= -0
MCLin5(2,4,0):  -99 y(4,2,0) + v(2,4,0) - u(2,4,0) >= -99
MCLin6(4,2,0):  u(4,2,0) >= -0
MCLin7(4,2,0):  -91 y(2,4,0) - u(4,2,0) <= -0
MCLin8(4,2,0):  89 y(2,4,0) + v(4,2,0) - u(4,2,0) <= 89
MCLin9(4,2,0):  89 y(2,4,0) - u(4,2,0) >= -0
MCLin10(4,2,0):  -91 y(2,4,0) + v(4,2,0) - u(4,2,0) >= -91
MCLinV(2,4,1):  x(2,1) - v(2,4,1) - x(4,1) = 8
MCLinV(4,2,1):  - x(2,1) - v(4,2,1) + x(4,1) = 8
MCLin1(2,4,1):  u(2,4,1) >= -0
MCLin2(2,4,1):  -100 y(4,2,1) - u(2,4,1) <= -0
MCLin3(2,4,1):  80 y(4,2,1) + v(2,4,1) - u(2,4,1) <= 80
MCLin4(2,4,1):  80 y(4,2,1) - u(2,4,1) >= -0
MCLin5(2,4,1):  -100 y(4,2,1) + v(2,4,1) - u(2,4,1) >= -100
MCLin6(4,2,1):  u(4,2,1) >= -0
MCLin7(4,2,1):  -96 y(2,4,1) - u(4,2,1) <= -0
MCLin8(4,2,1):  84 y(2,4,1) + v(4,2,1) - u(4,2,1) <= 84
MCLin9(4,2,1):  84 y(2,4,1) - u(4,2,1) >= -0
MCLin10(4,2,1):  -96 y(2,4,1) + v(4,2,1) - u(4,2,1) >= -96
MCLinV(2,4,2):  x(2,2) - v(2,4,2) - x(4,2) = 5
MCLinV(4,2,2):  - x(2,2) - v(4,2,2) + x(4,2) = 5
MCLin1(2,4,2):  u(2,4,2) >= -0
MCLin2(2,4,2):  -97 y(4,2,2) - u(2,4,2) <= -0
MCLin3(2,4,2):  83 y(4,2,2) + v(2,4,2) - u(2,4,2) <= 83
MCLin4(2,4,2):  83 y(4,2,2) - u(2,4,2) >= -0
MCLin5(2,4,2):  -97 y(4,2,2) + v(2,4,2) - u(2,4,2) >= -97
MCLin6(4,2,2):  u(4,2,2) >= -0
MCLin7(4,2,2):  -93 y(2,4,2) - u(4,2,2) <= -0
MCLin8(4,2,2):  87 y(2,4,2) + v(4,2,2) - u(4,2,2) <= 87
MCLin9(4,2,2):  87 y(2,4,2) - u(4,2,2) >= -0
MCLin10(4,2,2):  -93 y(2,4,2) + v(4,2,2) - u(4,2,2) >= -93
MCLinV(2,4,3):  x(2,3) - v(2,4,3) - x(4,3) = 7
MCLinV(4,2,3):  - x(2,3) - v(4,2,3) + x(4,3) = 1
MCLin1(2,4,3):  u(2,4,3) >= -0
MCLin2(2,4,3):  -76 y(4,2,3) - u(2,4,3) <= -0
MCLin3(2,4,3):  104 y(4,2,3) + v(2,4,3) - u(2,4,3) <= 104
MCLin4(2,4,3):  104 y(4,2,3) - u(2,4,3) >= -0
MCLin5(2,4,3):  -76 y(4,2,3) + v(2,4,3) - u(2,4,3) >= -76
MCLin6(4,2,3):  u(4,2,3) >= -0
MCLin7(4,2,3):  -112 y(2,4,3) - u(4,2,3) <= -0
MCLin8(4,2,3):  68 y(2,4,3) + v(4,2,3) - u(4,2,3) <= 68
MCLin9(4,2,3):  68 y(2,4,3) - u(4,2,3) >= -0
MCLin10(4,2,3):  -112 y(2,4,3) + v(4,2,3) - u(4,2,3) >= -112
MCLinV(3,4,0):  x(3,0) - v(3,4,0) - x(4,0) = 7
MCLinV(4,3,0):  - x(3,0) - v(4,3,0) + x(4,0) = 7
MCLin1(3,4,0):  u(3,4,0) >= -0
MCLin2(3,4,0):  -98 y(4,3,0) - u(3,4,0) <= -0
MCLin3(3,4,0):  78 y(4,3,0) + v(3,4,0) - u(3,4,0) <= 78
MCLin4(3,4,0):  78 y(4,3,0) - u(3,4,0) >= -0
MCLin5(3,4,0):  -98 y(4,3,0) + v(3,4,0) - u(3,4,0) >= -98
MCLin6(4,3,0):  u(4,3,0) >= -0
MCLin7(4,3,0):  -92 y(3,4,0) - u(4,3,0) <= -0
MCLin8(4,3,0):  84 y(3,4,0) + v(4,3,0) - u(4,3,0) <= 84
MCLin9(4,3,0):  84 y(3,4,0) - u(4,3,0) >= -0
MCLin10(4,3,0):  -92 y(3,4,0) + v(4,3,0) - u(4,3,0) >= -92
MCLinV(3,4,1):  x(3,1) - v(3,4,1) - x(4,1) = 8
MCLinV(4,3,1):  - x(3,1) - v(4,3,1) + x(4,1) = 3
MCLin1(3,4,1):  u(3,4,1) >= -0
MCLin2(3,4,1):  -102 y(4,3,1) - u(3,4,1) <= -0
MCLin3(3,4,1):  74 y(4,3,1) + v(3,4,1) - u(3,4,1) <= 74
MCLin4(3,4,1):  74 y(4,3,1) - u(3,4,1) >= -0
MCLin5(3,4,1):  -102 y(4,3,1) + v(3,4,1) - u(3,4,1) >= -102
MCLin6(4,3,1):  u(4,3,1) >= -0
MCLin7(4,3,1):  -85 y(3,4,1) - u(4,3,1) <= -0
MCLin8(4,3,1):  91 y(3,4,1) + v(4,3,1) - u(4,3,1) <= 91
MCLin9(4,3,1):  91 y(3,4,1) - u(4,3,1) >= -0
MCLin10(4,3,1):  -85 y(3,4,1) + v(4,3,1) - u(4,3,1) >= -85
MCLinV(3,4,2):  x(3,2) - v(3,4,2) - x(4,2) = 5
MCLinV(4,3,2):  - x(3,2) - v(4,3,2) + x(4,2) = 8
MCLin1(3,4,2):  u(3,4,2) >= -0
MCLin2(3,4,2):  -91 y(4,3,2) - u(3,4,2) <= -0
MCLin3(3,4,2):  85 y(4,3,2) + v(3,4,2) - u(3,4,2) <= 85
MCLin4(3,4,2):  85 y(4,3,2) - u(3,4,2) >= -0
MCLin5(3,4,2):  -91 y(4,3,2) + v(3,4,2) - u(3,4,2) >= -91
MCLin6(4,3,2):  u(4,3,2) >= -0
MCLin7(4,3,2):  -98 y(3,4,2) - u(4,3,2) <= -0
MCLin8(4,3,2):  78 y(3,4,2) + v(4,3,2) - u(4,3,2) <= 78
MCLin9(4,3,2):  78 y(3,4,2) - u(4,3,2) >= -0
MCLin10(4,3,2):  -98 y(3,4,2) + v(4,3,2) - u(4,3,2) >= -98
MCLinV(3,4,3):  x(3,3) - v(3,4,3) - x(4,3) = 7
MCLinV(4,3,3):  - x(3,3) - v(4,3,3) + x(4,3) = 3
MCLin1(3,4,3):  u(3,4,3) >= -0
MCLin2(3,4,3):  -92 y(4,3,3) - u(3,4,3) <= -0
MCLin3(3,4,3):  84 y(4,3,3) + v(3,4,3) - u(3,4,3) <= 84
MCLin4(3,4,3):  84 y(4,3,3) - u(3,4,3) >= -0
MCLin5(3,4,3):  -92 y(4,3,3) + v(3,4,3) - u(3,4,3) >= -92
MCLin6(4,3,3):  u(4,3,3) >= -0
MCLin7(4,3,3):  -94 y(3,4,3) - u(4,3,3) <= -0
MCLin8(4,3,3):  82 y(3,4,3) + v(4,3,3) - u(4,3,3) <= 82
MCLin9(4,3,3):  82 y(3,4,3) - u(4,3,3) >= -0
MCLin10(4,3,3):  -94 y(3,4,3) + v(4,3,3) - u(4,3,3) >= -94
makespan(0):  C - x(0,2) >= 5
makespan(1):  C - x(1,3) >= 3
makespan(2):  C - x(2,3) >= 1
makespan(3):  C - x(3,0) >= 7
makespan(4):  C - x(4,0) >= 7
cut_clique_0(01234,0):  0.00722 x(0,0) + 0.00983 x(1,0) + 0.00421 x(2,0) + 0.00983 x(3,0) + 0.00983 x(4,0) >= 1
cut_clique_0(0123,0):  0.01131 x(0,0) + 0.02218 x(1,0) + 0.00950 x(2,0) + 0.00792 x(3,0) >= 1
cut_clique_0(0124,0):  0.01131 x(0,0) + 0.02218 x(1,0) + 0.00950 x(2,0) + 0.00792 x(4,0) >= 1
cut_clique_0(1234,0):  0.01341 x(1,0) + 0.00575 x(2,0) + 0.01341 x(3,0) + 0.01341 x(4,0) >= 1
cut_clique_0(0134,0):  0.00852 x(0,0) + 0.01184 x(1,0) + 0.01184 x(3,0) + 0.01184 x(4,0) >= 1
cut_clique_0(0234,0):  0.01182 x(0,0) + 0.02482 x(2,0) + 0.00827 x(3,0) + 0.00827 x(4,0) >= 1
cut_clique_0(012,0):  0.01717 x(0,0) + 0.02805 x(1,0) + 0.01202 x(2,0) >= 1
cut_clique_0(123,0):  0.04636 x(1,0) + 0.01987 x(2,0) >= 1
cut_clique_0(124,0):  0.04636 x(1,0) + 0.01987 x(2,0) >= 1
cut_clique_0(134,0):  0.01394 x(1,0) + 0.01742 x(3,0) + 0.01742 x(4,0) >= 1
cut_clique_0(234,0):  0.00574 x(2,0) + 0.00922 x(3,0) + 0.03382 x(4,0) >= 1
cut_clique_0(013,0):  0.01410 x(0,0) + 0.03244 x(1,0) + 0.00987 x(3,0) >= 1
cut_clique_0(014,0):  0.01410 x(0,0) + 0.03244 x(1,0) + 0.00987 x(4,0) >= 1
cut_clique_0(023,0):  0.01804 x(0,0) + 0.02946 x(2,0) + 0.01263 x(3,0) >= 1
cut_clique_0(024,0):  0.01056 x(0,0) + 0.02522 x(2,0) + 0.01935 x(4,0) >= 1
cut_clique_0(034,0):  0.01037 x(0,0) + 0.01689 x(3,0) + 0.02253 x(4,0) >= 1
cut_clique_0(01234,1):  0.04110 x(0,1) + 0.04795 x(1,1) + 0.05479 x(2,1) >= 1
cut_clique_0(0123,1):  0.04110 x(0,1) + 0.04795 x(1,1) + 0.05479 x(2,1) >= 1
cut_clique_0(0234,1):  0.01146 x(0,1) + 0.03540 x(2,1) + 0.01327 x(3,1) + 0.03540 x(4,1) >= 1
cut_clique_0(0124,1):  0.04110 x(0,1) + 0.04795 x(1,1) + 0.05479 x(2,1) >= 1
cut_clique_0(1234,1):  0.03112 x(1,1) + 0.07921 x(2,1) + 0.02970 x(3,1) >= 1
cut_clique_0(0134,1):  0.14286 x(0,1) + 0.16667 x(1,1) >= 1
cut_clique_0(012,1):  0.04110 x(0,1) + 0.04795 x(1,1) + 0.05479 x(2,1) >= 1
cut_clique_0(023,1):  0.02619 x(0,1) + 0.08889 x(2,1) + 0.03333 x(3,1) >= 1
cut_clique_0(234,1):  0.00949 x(2,1) + 0.00422 x(3,1) + 0.06646 x(4,1) >= 1
cut_clique_0(013,1):  0.14286 x(0,1) + 0.16667 x(1,1) >= 1
cut_clique_0(024,1):  0.00732 x(0,1) + 0.14390 x(2,1) + 0.00976 x(4,1) >= 1
cut_clique_0(123,1):  0.03112 x(1,1) + 0.07921 x(2,1) + 0.02970 x(3,1) >= 1
cut_clique_0(014,1):  0.14286 x(0,1) + 0.16667 x(1,1) >= 1
cut_clique_0(124,1):  0.02198 x(1,1) + 0.14286 x(2,1) >= 1
cut_clique_0(01234,2):  0.02697 x(1,2) + 0.02884 x(3,2) + 0.02247 x(4,2) >= 1
cut_clique_0(1234,2):  0.02697 x(1,2) + 0.02884 x(3,2) + 0.02247 x(4,2) >= 1
cut_clique_0(0134,2):  0.02697 x(1,2) + 0.02884 x(3,2) + 0.02247 x(4,2) >= 1
cut_clique_0(0124,2):  0.05607 x(1,2) + 0.04673 x(4,2) >= 1
cut_clique_0(0123,2):  0.05000 x(1,2) + 0.05000 x(3,2) >= 1
cut_clique_0(134,2):  0.02697 x(1,2) + 0.02884 x(3,2) + 0.02247 x(4,2) >= 1
cut_clique_0(124,2):  0.05607 x(1,2) + 0.04673 x(4,2) >= 1
cut_clique_0(123,2):  0.05000 x(1,2) + 0.05000 x(3,2) >= 1
cut_clique_0(013,2):  0.05000 x(1,2) + 0.05000 x(3,2) >= 1
cut_clique_0(014,2):  0.05607 x(1,2) + 0.04673 x(4,2) >= 1
cut_clique_0(01234,3):  0.14286 x(3,3) + 0.33333 x(4,3) >= 1
cut_clique_0(0234,3):  0.14286 x(3,3) + 0.33333 x(4,3) >= 1
cut_clique_0(0134,3):  0.14286 x(3,3) + 0.33333 x(4,3) >= 1
cut_clique_0(1234,3):  0.14286 x(3,3) + 0.33333 x(4,3) >= 1
cut_clique_0(034,3):  0.14286 x(3,3) + 0.33333 x(4,3) >= 1
cut_clique_0(234,3):  0.14286 x(3,3) + 0.33333 x(4,3) >= 1
cut_clique_0(134,3):  0.14286 x(3,3) + 0.33333 x(4,3) >= 1
cut_clique_1(01234,1):  0.00330 x(0,1) + 0.00330 x(1,1) + 0.00441 x(2,1) + 0.06828 x(4,1) >= 1
cut_clique_1(0134,1):  0.00532 x(0,1) + 0.00532 x(1,1) + 0.07447 x(4,1) >= 1
cut_clique_1(0124,1):  0.00330 x(0,1) + 0.00330 x(1,1) + 0.00441 x(2,1) + 0.06828 x(4,1) >= 1
cut_clique_1(014,1):  0.00532 x(0,1) + 0.00532 x(1,1) + 0.07447 x(4,1) >= 1
Bounds
 0 <= C <= 112
 9 <= x(0,0) <= 97
 0 <= y(0,1,0) <= 1
 0 <= y(1,0,0) <= 1
 -100 <= v(0,1,0) <= 77
 -94 <= v(1,0,0) <= 83
 -1120 <= u(0,1,0)
 -1120 <= u(1,0,0)
 0 <= y(0,2,0) <= 1
 0 <= y(2,0,0) <= 1
 -102 <= v(0,2,0) <= 81
 -94 <= v(2,0,0) <= 89
 -1120 <= u(0,2,0)
 -1120 <= u(2,0,0)
 0 <= y(0,3,0) <= 1
 0 <= y(3,0,0) <= 1
 -103 <= v(0,3,0) <= 76
 -93 <= v(3,0,0) <= 86
 -1120 <= u(0,3,0)
 -1120 <= u(3,0,0)
 0 <= y(0,4,0) <= 1
 0 <= y(4,0,0) <= 1
 -103 <= v(0,4,0) <= 70
 -87 <= v(4,0,0) <= 86
 -1120 <= u(0,4,0)
 -1120 <= u(4,0,0)
 13 <= x(1,0) <= 102
 0 <= y(1,2,0) <= 1
 0 <= y(2,1,0) <= 1
 -98 <= v(1,2,0) <= 86
 -96 <= v(2,1,0) <= 88
 -1120 <= u(1,2,0)
 -1120 <= u(2,1,0)
 0 <= y(1,3,0) <= 1
 0 <= y(3,1,0) <= 1
 -99 <= v(1,3,0) <= 81
 -95 <= v(3,1,0) <= 85
 -1120 <= u(1,3,0)
 -1120 <= u(3,1,0)
 0 <= y(1,4,0) <= 1
 0 <= y(4,1,0) <= 1
 -99 <= v(1,4,0) <= 75
 -89 <= v(4,1,0) <= 85
 -1120 <= u(1,4,0)
 -1120 <= u(4,1,0)
 13 <= x(2,0) <= 108
 0 <= y(2,3,0) <= 1
 0 <= y(3,2,0) <= 1
 -99 <= v(2,3,0) <= 87
 -97 <= v(3,2,0) <= 89
 -1120 <= u(2,3,0)
 -1120 <= u(3,2,0)
 0 <= y(2,4,0) <= 1
 0 <= y(4,2,0) <= 1
 -99 <= v(2,4,0) <= 81
 -91 <= v(4,2,0) <= 89
 -1120 <= u(2,4,0)
 -1120 <= u(4,2,0)
 14 <= x(3,0) <= 105
 0 <= y(3,4,0) <= 1
 0 <= y(4,3,0) <= 1
 -98 <= v(3,4,0) <= 78
 -92 <= v(4,3,0) <= 84
 -1120 <= u(3,4,0)
 -1120 <= u(4,3,0)
 20 <= x(4,0) <= 105
 0 <= x(0,1) <= 88
 0 <= y(0,1,1) <= 1
 0 <= y(1,0,1) <= 1
 -96 <= v(0,1,1) <= 81
 -94 <= v(1,0,1) <= 83
 -1120 <= u(0,1,1)
 -1120 <= u(1,0,1)
 0 <= y(0,2,1) <= 1
 0 <= y(2,0,1) <= 1
 -108 <= v(0,2,1) <= 75
 -89 <= v(2,0,1) <= 94
 -1120 <= u(0,2,1)
 -1120 <= u(2,0,1)
 0 <= y(0,3,1) <= 1
 0 <= y(3,0,1) <= 1
 -97 <= v(0,3,1) <= 82
 -91 <= v(3,0,1) <= 88
 -1120 <= u(0,3,1)
 -1120 <= u(3,0,1)
 0 <= y(0,4,1) <= 1
 0 <= y(4,0,1) <= 1
 -105 <= v(0,4,1) <= 68
 -82 <= v(4,0,1) <= 91
 -1120 <= u(0,4,1)
 -1120 <= u(4,0,1)
 0 <= x(1,1) <= 89
 0 <= y(1,2,1) <= 1
 0 <= y(2,1,1) <= 1
 -108 <= v(1,2,1) <= 76
 -91 <= v(2,1,1) <= 93
 -1120 <= u(1,2,1)
 -1120 <= u(2,1,1)
 0 <= y(1,3,1) <= 1
 0 <= y(3,1,1) <= 1
 -97 <= v(1,3,1) <= 83
 -93 <= v(3,1,1) <= 87
 -1120 <= u(1,3,1)
 -1120 <= u(3,1,1)
 0 <= y(1,4,1) <= 1
 0 <= y(4,1,1) <= 1
 -105 <= v(1,4,1) <= 69
 -84 <= v(4,1,1) <= 90
 -1120 <= u(1,4,1)
 -1120 <= u(4,1,1)
 5 <= x(2,1) <= 100
 0 <= y(2,3,1) <= 1
 0 <= y(3,2,1) <= 1
 -92 <= v(2,3,1) <= 94
 -105 <= v(3,2,1) <= 81
 -1120 <= u(2,3,1)
 -1120 <= u(3,2,1)
 0 <= y(2,4,1) <= 1
 0 <= y(4,2,1) <= 1
 -100 <= v(2,4,1) <= 80
 -96 <= v(4,2,1) <= 84
 -1120 <= u(2,4,1)
 -1120 <= u(4,2,1)
 3 <= x(3,1) <= 94
 0 <= y(3,4,1) <= 1
 0 <= y(4,3,1) <= 1
 -102 <= v(3,4,1) <= 74
 -85 <= v(4,3,1) <= 91
 -1120 <= u(3,4,1)
 -1120 <= u(4,3,1)
 12 <= x(4,1) <= 97
 19 <= x(0,2) <= 107
 0 <= y(0,1,2) <= 1
 0 <= y(1,0,2) <= 1
 -83 <= v(0,1,2) <= 94
 -105 <= v(1,0,2) <= 72
 -1120 <= u(0,1,2)
 -1120 <= u(1,0,2)
 0 <= y(0,2,2) <= 1
 0 <= y(2,0,2) <= 1
 -81 <= v(0,2,2) <= 102
 -112 <= v(2,0,2) <= 71
 -1120 <= u(0,2,2)
 -1120 <= u(2,0,2)
 0 <= y(0,3,2) <= 1
 0 <= y(3,0,2) <= 1
 -86 <= v(0,3,2) <= 93
 -106 <= v(3,0,2) <= 73
 -1120 <= u(0,3,2)
 -1120 <= u(3,0,2)
 0 <= y(0,4,2) <= 1
 0 <= y(4,0,2) <= 1
 -78 <= v(0,4,2) <= 95
 -105 <= v(4,0,2) <= 68
 -1120 <= u(0,4,2)
 -1120 <= u(4,0,2)
 7 <= x(1,2) <= 96
 0 <= y(1,2,2) <= 1
 0 <= y(2,1,2) <= 1
 -93 <= v(1,2,2) <= 91
 -102 <= v(2,1,2) <= 82
 -1120 <= u(1,2,2)
 -1120 <= u(2,1,2)
 0 <= y(1,3,2) <= 1
 0 <= y(3,1,2) <= 1
 -98 <= v(1,3,2) <= 82
 -96 <= v(3,1,2) <= 84
 -1120 <= u(1,3,2)
 -1120 <= u(3,1,2)
 0 <= y(1,4,2) <= 1
 0 <= y(4,1,2) <= 1
 -90 <= v(1,4,2) <= 84
 -95 <= v(4,1,2) <= 79
 -1120 <= u(1,4,2)
 -1120 <= u(4,1,2)
 0 <= x(2,2) <= 95
 0 <= y(2,3,2) <= 1
 0 <= y(3,2,2) <= 1
 -105 <= v(2,3,2) <= 81
 -94 <= v(3,2,2) <= 92
 -1120 <= u(2,3,2)
 -1120 <= u(3,2,2)
 0 <= y(2,4,2) <= 1
 0 <= y(4,2,2) <= 1
 -97 <= v(2,4,2) <= 83
 -93 <= v(4,2,2) <= 87
 -1120 <= u(2,4,2)
 -1120 <= u(4,2,2)
 6 <= x(3,2) <= 97
 0 <= y(3,4,2) <= 1
 0 <= y(4,3,2) <= 1
 -91 <= v(3,4,2) <= 85
 -98 <= v(4,3,2) <= 78
 -1120 <= u(3,4,2)
 -1120 <= u(4,3,2)
 7 <= x(4,2) <= 92
 6 <= x(0,3) <= 94
 0 <= y(0,1,3) <= 1
 0 <= y(1,0,3) <= 1
 -106 <= v(0,1,3) <= 71
 -77 <= v(1,0,3) <= 100
 -1120 <= u(0,1,3)
 -1120 <= u(1,0,3)
 0 <= y(0,2,3) <= 1
 0 <= y(2,0,3) <= 1
 -106 <= v(0,2,3) <= 77
 -81 <= v(2,0,3) <= 102
 -1120 <= u(0,2,3)
 -1120 <= u(2,0,3)
 0 <= y(0,3,3) <= 1
 0 <= y(3,0,3) <= 1
 -88 <= v(0,3,3) <= 91
 -97 <= v(3,0,3) <= 82
 -1120 <= u(0,3,3)
 -1120 <= u(3,0,3)
 0 <= y(0,4,3) <= 1
 0 <= y(4,0,3) <= 1
 -86 <= v(0,4,3) <= 87
 -97 <= v(4,0,3) <= 76
 -1120 <= u(0,4,3)
 -1120 <= u(4,0,3)
 20 <= x(1,3) <= 109
 0 <= y(1,2,3) <= 1
 0 <= y(2,1,3) <= 1
 -92 <= v(1,2,3) <= 92
 -96 <= v(2,1,3) <= 88
 -1120 <= u(1,2,3)
 -1120 <= u(2,1,3)
 0 <= y(1,3,3) <= 1
 0 <= y(3,1,3) <= 1
 -74 <= v(1,3,3) <= 106
 -112 <= v(3,1,3) <= 68
 -1120 <= u(1,3,3)
 -1120 <= u(3,1,3)
 0 <= y(1,4,3) <= 1
 0 <= y(4,1,3) <= 1
 -72 <= v(1,4,3) <= 102
 -112 <= v(4,1,3) <= 62
 -1120 <= u(1,4,3)
 -1120 <= u(4,1,3)
 16 <= x(2,3) <= 111
 0 <= y(2,3,3) <= 1
 0 <= y(3,2,3) <= 1
 -78 <= v(2,3,3) <= 108
 -112 <= v(3,2,3) <= 74
 -1120 <= u(2,3,3)
 -1120 <= u(3,2,3)
 0 <= y(2,4,3) <= 1
 0 <= y(4,2,3) <= 1
 -76 <= v(2,4,3) <= 104
 -112 <= v(4,2,3) <= 68
 -1120 <= u(2,4,3)
 -1120 <= u(4,2,3)
 0 <= x(3,3) <= 91
 0 <= y(3,4,3) <= 1
 0 <= y(4,3,3) <= 1
 -92 <= v(3,4,3) <= 84
 -94 <= v(4,3,3) <= 82
 -1120 <= u(3,4,3)
 -1120 <= u(4,3,3)
 0 <= x(4,3) <= 85
Integers
C x(0,0) y(0,1,0) y(1,0,0) v(0,1,0) v(1,0,0) u(0,1,0) u(1,0,0) y(0,2,0) y(2,0,0) 
v(0,2,0) v(2,0,0) u(0,2,0) u(2,0,0) y(0,3,0) y(3,0,0) v(0,3,0) v(3,0,0) u(0,3,0) u(3,0,0) 
y(0,4,0) y(4,0,0) v(0,4,0) v(4,0,0) u(0,4,0) u(4,0,0) x(1,0) y(1,2,0) y(2,1,0) v(1,2,0) 
v(2,1,0) u(1,2,0) u(2,1,0) y(1,3,0) y(3,1,0) v(1,3,0) v(3,1,0) u(1,3,0) u(3,1,0) y(1,4,0) 
y(4,1,0) v(1,4,0) v(4,1,0) u(1,4,0) u(4,1,0) x(2,0) y(2,3,0) y(3,2,0) v(2,3,0) v(3,2,0) 
u(2,3,0) u(3,2,0) y(2,4,0) y(4,2,0) v(2,4,0) v(4,2,0) u(2,4,0) u(4,2,0) x(3,0) y(3,4,0) 
y(4,3,0) v(3,4,0) v(4,3,0) u(3,4,0) u(4,3,0) x(4,0) x(0,1) y(0,1,1) y(1,0,1) v(0,1,1) 
v(1,0,1) u(0,1,1) u(1,0,1) y(0,2,1) y(2,0,1) v(0,2,1) v(2,0,1) u(0,2,1) u(2,0,1) y(0,3,1) 
y(3,0,1) v(0,3,1) v(3,0,1) u(0,3,1) u(3,0,1) y(0,4,1) y(4,0,1) v(0,4,1) v(4,0,1) u(0,4,1) 
u(4,0,1) x(1,1) y(1,2,1) y(2,1,1) v(1,2,1) v(2,1,1) u(1,2,1) u(2,1,1) y(1,3,1) y(3,1,1) 
v(1,3,1) v(3,1,1) u(1,3,1) u(3,1,1) y(1,4,1) y(4,1,1) v(1,4,1) v(4,1,1) u(1,4,1) u(4,1,1) 
x(2,1) y(2,3,1) y(3,2,1) v(2,3,1) v(3,2,1) u(2,3,1) u(3,2,1) y(2,4,1) y(4,2,1) v(2,4,1) 
v(4,2,1) u(2,4,1) u(4,2,1) x(3,1) y(3,4,1) y(4,3,1) v(3,4,1) v(4,3,1) u(3,4,1) u(4,3,1) 
x(4,1) x(0,2) y(0,1,2) y(1,0,2) v(0,1,2) v(1,0,2) u(0,1,2) u(1,0,2) y(0,2,2) y(2,0,2) 
v(0,2,2) v(2,0,2) u(0,2,2) u(2,0,2) y(0,3,2) y(3,0,2) v(0,3,2) v(3,0,2) u(0,3,2) u(3,0,2) 
y(0,4,2) y(4,0,2) v(0,4,2) v(4,0,2) u(0,4,2) u(4,0,2) x(1,2) y(1,2,2) y(2,1,2) v(1,2,2) 
v(2,1,2) u(1,2,2) u(2,1,2) y(1,3,2) y(3,1,2) v(1,3,2) v(3,1,2) u(1,3,2) u(3,1,2) y(1,4,2) 
y(4,1,2) v(1,4,2) v(4,1,2) u(1,4,2) u(4,1,2) x(2,2) y(2,3,2) y(3,2,2) v(2,3,2) v(3,2,2) 
u(2,3,2) u(3,2,2) y(2,4,2) y(4,2,2) v(2,4,2) v(4,2,2) u(2,4,2) u(4,2,2) x(3,2) y(3,4,2) 
y(4,3,2) v(3,4,2) v(4,3,2) u(3,4,2) u(4,3,2) x(4,2) x(0,3) y(0,1,3) y(1,0,3) v(0,1,3) 
v(1,0,3) u(0,1,3) u(1,0,3) y(0,2,3) y(2,0,3) v(0,2,3) v(2,0,3) u(0,2,3) u(2,0,3) y(0,3,3) 
y(3,0,3) v(0,3,3) v(3,0,3) u(0,3,3) u(3,0,3) y(0,4,3) y(4,0,3) v(0,4,3) v(4,0,3) u(0,4,3) 
u(4,0,3) x(1,3) y(1,2,3) y(2,1,3) v(1,2,3) v(2,1,3) u(1,2,3) u(2,1,3) y(1,3,3) y(3,1,3) 
v(1,3,3) v(3,1,3) u(1,3,3) u(3,1,3) y(1,4,3) y(4,1,3) v(1,4,3) v(4,1,3) u(1,4,3) u(4,1,3) 
x(2,3) y(2,3,3) y(3,2,3) v(2,3,3) v(3,2,3) u(2,3,3) u(3,2,3) y(2,4,3) y(4,2,3) v(2,4,3) 
v(4,2,3) u(2,4,3) u(4,2,3) x(3,3) y(3,4,3) y(4,3,3) v(3,4,3) v(4,3,3) u(3,4,3) u(4,3,3) 
x(4,3) 
End
